/*********************************************
 * OPL 12.9.0.0 Data
 * Author: user
 * Creation Date: Mar 26, 2023 at 1:01:16 AM
 *********************************************/
n = 4;
m = 3;
C = 1;
SKUs = {"A","B","C","D"};
SKUInOrder = [{"A","B","C"},{"A","B","C","D"},{"B","C","D"},{"C","D"}];
SKUOnRack= [{"A","C"},{"B","D"},{"C","D"}];
  